n = 20;

m = 5;

p = [12,4,0,4,0];

v = [0.0,0.25,0.5,0.75,1.0];

ce = [1.0,2.0,1.0,1.0,3.0];

c =
[|
0.0,2.0,4.0,5.0,7.0
|1.0,0.0,3.0,4.0,6.0
|3.0,2.0,0.0,2.0,4.0
|4.0,2.0,1.0,0.0,2.0
|8.0,5.0,3.0,2.0,0.0
|];

ct = 20.0;

maxM = 18;